objective value:                                11974
t_x_3                                               1 	(obj:1)
t_x_8                                               1 	(obj:7)
t_x_11                                              1 	(obj:21)
t_x_12                                              1 	(obj:2)
t_x_13                                              1 	(obj:18)
t_x_15                                              1 	(obj:25)
t_x_19                                              1 	(obj:33)
t_x_24                                              1 	(obj:11)
t_x_25                                              1 	(obj:67)
t_x_28                                              1 	(obj:42)
t_x_30                                              1 	(obj:5)
t_x_31                                              1 	(obj:5)
t_x_32                                              1 	(obj:5)
t_x_34                                              1 	(obj:19)
t_x_36                                              1 	(obj:33)
t_x_37                                              1 	(obj:25)
t_x_38                                              1 	(obj:51)
t_x_43                                              1 	(obj:1)
t_x_49                                              1 	(obj:11)
t_x_50                                              1 	(obj:61)
t_x_51                                              1 	(obj:21)
t_x_53                                              1 	(obj:22)
t_x_55                                              1 	(obj:0)
t_x_57                                              1 	(obj:87)
t_x_58                                              1 	(obj:76)
t_x_59                                              1 	(obj:6)
t_x_63                                              1 	(obj:7)
t_x_64                                              1 	(obj:24)
t_x_69                                              1 	(obj:7)
t_x_72                                              1 	(obj:22)
t_x_73                                              1 	(obj:62)
t_x_74                                              1 	(obj:1)
t_x_75                                              1 	(obj:41)
t_x_78                                              1 	(obj:17)
t_x_80                                              1 	(obj:77)
t_x_82                                              1 	(obj:17)
t_x_85                                              1 	(obj:40)
t_x_90                                              1 	(obj:52)
t_x_91                                              1 	(obj:7)
t_x_93                                              1 	(obj:26)
t_x_94                                              1 	(obj:39)
t_x_95                                              1 	(obj:54)
t_x_97                                              1 	(obj:19)
t_x_100                                             1 	(obj:6)
t_x_106                                             1 	(obj:12)
t_x_107                                             1 	(obj:6)
t_x_108                                             1 	(obj:26)
t_x_120                                             1 	(obj:11)
t_x_124                                             1 	(obj:18)
t_x_131                                             1 	(obj:16)
t_x_136                                             1 	(obj:48)
t_x_140                                             1 	(obj:13)
t_x_142                                             1 	(obj:35)
t_x_143                                             1 	(obj:11)
t_x_151                                             1 	(obj:37)
t_x_152                                             1 	(obj:4)
t_x_154                                             1 	(obj:37)
t_x_155                                             1 	(obj:5)
t_x_156                                             1 	(obj:66)
t_x_160                                             1 	(obj:35)
t_x_163                                             1 	(obj:28)
t_x_165                                             1 	(obj:18)
t_x_168                                             1 	(obj:2)
t_x_169                                             1 	(obj:6)
t_x_171                                             1 	(obj:8)
t_x_178                                             1 	(obj:35)
t_x_179                                             1 	(obj:0)
t_x_180                                             1 	(obj:48)
t_x_181                                             1 	(obj:11)
t_x_184                                             1 	(obj:5)
t_x_192                                             1 	(obj:20)
t_x_193                                             1 	(obj:15)
t_x_195                                             1 	(obj:17)
t_x_202                                             1 	(obj:2)
t_x_204                                             1 	(obj:34)
t_x_206                                             1 	(obj:12)
t_x_218                                             1 	(obj:31)
t_x_223                                             1 	(obj:7)
t_x_224                                             1 	(obj:18)
t_x_227                                             1 	(obj:16)
t_x_244                                             1 	(obj:19)
t_x_248                                             1 	(obj:0)
t_x_251                                             1 	(obj:18)
t_x_255                                             1 	(obj:27)
t_x_261                                             1 	(obj:6)
t_x_264                                             1 	(obj:20)
t_x_267                                             1 	(obj:4)
t_x_268                                             1 	(obj:25)
t_x_274                                             1 	(obj:23)
t_x_277                                             1 	(obj:7)
t_x_278                                             1 	(obj:22)
t_x_280                                             1 	(obj:7)
t_x_285                                             1 	(obj:22)
t_x_286                                             1 	(obj:4)
t_x_288                                             1 	(obj:18)
t_x_301                                             1 	(obj:7)
t_x_304                                             1 	(obj:30)
t_x_305                                             1 	(obj:7)
t_x_308                                             1 	(obj:22)
t_x_317                                             1 	(obj:10)
t_x_326                                             1 	(obj:70)
t_x_335                                             1 	(obj:29)
t_x_339                                             1 	(obj:7)
t_x_343                                             1 	(obj:12)
t_x_349                                             1 	(obj:1)
t_x_355                                             1 	(obj:25)
t_x_356                                             1 	(obj:39)
t_x_358                                             1 	(obj:29)
t_x_362                                             1 	(obj:25)
t_x_367                                             1 	(obj:11)
t_x_368                                             1 	(obj:17)
t_x_369                                             1 	(obj:38)
t_x_371                                             1 	(obj:0)
t_x_379                                             1 	(obj:29)
t_x_385                                             1 	(obj:7)
t_x_387                                             1 	(obj:52)
t_x_397                                             1 	(obj:53)
t_x_398                                             1 	(obj:5)
t_x_399                                             1 	(obj:30)
t_x_401                                             1 	(obj:18)
t_x_403                                             1 	(obj:7)
t_x_408                                             1 	(obj:47)
t_x_410                                             1 	(obj:30)
t_x_413                                             1 	(obj:17)
t_x_416                                             1 	(obj:23)
t_x_421                                             1 	(obj:32)
t_x_422                                             1 	(obj:55)
t_x_423                                             1 	(obj:3)
t_x_427                                             1 	(obj:15)
t_x_431                                             1 	(obj:4)
t_x_440                                             1 	(obj:57)
t_x_441                                             1 	(obj:30)
t_x_442                                             1 	(obj:25)
t_x_444                                             1 	(obj:22)
t_x_454                                             1 	(obj:8)
t_x_455                                             1 	(obj:22)
t_x_456                                             1 	(obj:20)
t_x_458                                             1 	(obj:27)
t_x_463                                             1 	(obj:10)
t_x_466                                             1 	(obj:8)
t_x_472                                             1 	(obj:0)
t_x_478                                             1 	(obj:19)
t_x_480                                             1 	(obj:6)
t_x_481                                             1 	(obj:17)
t_x_486                                             1 	(obj:46)
t_x_487                                             1 	(obj:9)
t_x_490                                             1 	(obj:24)
t_x_499                                             1 	(obj:44)
t_x_503                                             1 	(obj:11)
t_x_506                                             1 	(obj:7)
t_x_508                                             1 	(obj:26)
t_x_511                                             1 	(obj:2)
t_x_512                                             1 	(obj:0)
t_x_515                                             1 	(obj:14)
t_x_517                                             1 	(obj:25)
t_x_518                                             1 	(obj:28)
t_x_519                                             1 	(obj:0)
t_x_524                                             1 	(obj:6)
t_x_525                                             1 	(obj:35)
t_x_534                                             1 	(obj:50)
t_x_535                                             1 	(obj:36)
t_x_536                                             1 	(obj:5)
t_x_537                                             1 	(obj:21)
t_x_539                                             1 	(obj:14)
t_x_542                                             1 	(obj:56)
t_x_545                                             1 	(obj:0)
t_x_554                                             1 	(obj:32)
t_x_556                                             1 	(obj:16)
t_x_558                                             1 	(obj:9)
t_x_562                                             1 	(obj:10)
t_x_566                                             1 	(obj:26)
t_x_568                                             1 	(obj:19)
t_x_569                                             1 	(obj:9)
t_x_570                                             1 	(obj:14)
t_x_571                                             1 	(obj:33)
t_x_573                                             1 	(obj:50)
t_x_578                                             1 	(obj:36)
t_x_585                                             1 	(obj:76)
t_x_587                                             1 	(obj:0)
t_x_602                                             1 	(obj:40)
t_x_605                                             1 	(obj:21)
t_x_606                                             1 	(obj:1)
t_x_616                                             1 	(obj:3)
t_x_619                                             1 	(obj:22)
t_x_620                                             1 	(obj:7)
t_x_621                                             1 	(obj:13)
t_x_625                                             1 	(obj:6)
t_x_629                                             1 	(obj:29)
t_x_632                                             1 	(obj:28)
t_x_634                                             1 	(obj:18)
t_x_635                                             1 	(obj:14)
t_x_638                                             1 	(obj:45)
t_x_641                                             1 	(obj:26)
t_x_642                                             1 	(obj:11)
t_x_646                                             1 	(obj:17)
t_x_660                                             1 	(obj:24)
t_x_663                                             1 	(obj:4)
t_x_664                                             1 	(obj:23)
t_x_666                                             1 	(obj:25)
t_x_675                                             1 	(obj:28)
t_x_678                                             1 	(obj:13)
t_x_680                                             1 	(obj:21)
t_x_684                                             1 	(obj:9)
t_x_686                                             1 	(obj:30)
t_x_689                                             1 	(obj:63)
t_x_690                                             1 	(obj:7)
t_x_691                                             1 	(obj:8)
t_x_693                                             1 	(obj:50)
t_x_696                                             1 	(obj:4)
t_x_699                                             1 	(obj:16)
t_x_705                                             1 	(obj:29)
t_x_713                                             1 	(obj:27)
t_x_714                                             1 	(obj:21)
t_x_718                                             1 	(obj:5)
t_x_725                                             1 	(obj:17)
t_x_730                                             1 	(obj:28)
t_x_741                                             1 	(obj:26)
t_x_744                                             1 	(obj:32)
t_x_746                                             1 	(obj:4)
t_x_749                                             1 	(obj:20)
t_x_751                                             1 	(obj:45)
t_x_754                                             1 	(obj:0)
t_x_756                                             1 	(obj:30)
t_x_757                                             1 	(obj:14)
t_x_762                                             1 	(obj:24)
t_x_763                                             1 	(obj:7)
t_x_767                                             1 	(obj:29)
t_x_768                                             1 	(obj:17)
t_x_769                                             1 	(obj:1)
t_x_774                                             1 	(obj:28)
t_x_778                                             1 	(obj:2)
t_x_785                                             1 	(obj:16)
t_x_786                                             1 	(obj:7)
t_x_788                                             1 	(obj:11)
t_x_789                                             1 	(obj:15)
t_x_793                                             1 	(obj:8)
t_x_795                                             1 	(obj:25)
t_x_798                                             1 	(obj:47)
t_x_802                                             1 	(obj:18)
t_x_803                                             1 	(obj:16)
t_x_806                                             1 	(obj:18)
t_x_811                                             1 	(obj:11)
t_x_812                                             1 	(obj:10)
t_x_813                                             1 	(obj:8)
t_x_821                                             1 	(obj:41)
t_x_823                                             1 	(obj:0)
t_x_827                                             1 	(obj:27)
t_x_832                                             1 	(obj:32)
t_x_834                                             1 	(obj:44)
t_x_841                                             1 	(obj:19)
t_x_845                                             1 	(obj:13)
t_x_846                                             1 	(obj:6)
t_x_858                                             1 	(obj:21)
t_x_860                                             1 	(obj:23)
t_x_861                                             1 	(obj:0)
t_x_866                                             1 	(obj:14)
t_x_869                                             1 	(obj:28)
t_x_873                                             1 	(obj:9)
t_x_876                                             1 	(obj:5)
t_x_877                                             1 	(obj:71)
t_x_883                                             1 	(obj:49)
t_x_888                                             1 	(obj:34)
t_x_890                                             1 	(obj:15)
t_x_892                                             1 	(obj:35)
t_x_894                                             1 	(obj:32)
t_x_899                                             1 	(obj:15)
t_x_902                                             1 	(obj:27)
t_x_905                                             1 	(obj:11)
t_x_906                                             1 	(obj:43)
t_x_907                                             1 	(obj:16)
t_x_911                                             1 	(obj:9)
t_x_914                                             1 	(obj:29)
t_x_915                                             1 	(obj:9)
t_x_919                                             1 	(obj:24)
t_x_923                                             1 	(obj:7)
t_x_927                                             1 	(obj:2)
t_x_928                                             1 	(obj:20)
t_x_929                                             1 	(obj:35)
t_x_933                                             1 	(obj:0)
t_x_936                                             1 	(obj:12)
t_x_945                                             1 	(obj:59)
t_x_951                                             1 	(obj:22)
t_x_953                                             1 	(obj:54)
t_x_965                                             1 	(obj:22)
t_x_967                                             1 	(obj:3)
t_x_973                                             1 	(obj:11)
t_x_975                                             1 	(obj:10)
t_x_977                                             1 	(obj:1)
t_x_981                                             1 	(obj:16)
t_x_982                                             1 	(obj:5)
t_x_991                                             1 	(obj:13)
t_x_993                                             1 	(obj:17)
t_x_994                                             1 	(obj:4)
t_x_998                                             1 	(obj:3)
t_x_1002                                            1 	(obj:28)
t_x_1007                                            1 	(obj:12)
t_x_1013                                            1 	(obj:9)
t_x_1019                                            1 	(obj:10)
t_x_1021                                            1 	(obj:45)
t_x_1027                                            1 	(obj:8)
t_x_1028                                            1 	(obj:51)
t_x_1029                                            1 	(obj:25)
t_x_1031                                            1 	(obj:0)
t_x_1037                                            1 	(obj:13)
t_x_1038                                            1 	(obj:39)
t_x_1039                                            1 	(obj:26)
t_x_1041                                            1 	(obj:29)
t_x_1049                                            1 	(obj:4)
t_x_1053                                            1 	(obj:1)
t_x_1054                                            1 	(obj:19)
t_x_1060                                            1 	(obj:10)
t_x_1063                                            1 	(obj:3)
t_x_1067                                            1 	(obj:10)
t_x_1068                                            1 	(obj:12)
t_x_1069                                            1 	(obj:24)
t_x_1070                                            1 	(obj:20)
t_x_1072                                            1 	(obj:6)
t_x_1082                                            1 	(obj:37)
t_x_1084                                            1 	(obj:77)
t_x_1088                                            1 	(obj:3)
t_x_1095                                            1 	(obj:23)
t_x_1097                                            1 	(obj:5)
t_x_1102                                            1 	(obj:16)
t_x_1108                                            1 	(obj:0)
t_x_1114                                            1 	(obj:11)
t_x_1116                                            1 	(obj:33)
t_x_1118                                            1 	(obj:9)
t_x_1122                                            1 	(obj:16)
t_x_1132                                            1 	(obj:5)
t_x_1135                                            1 	(obj:36)
t_x_1136                                            1 	(obj:8)
t_x_1138                                            1 	(obj:15)
t_x_1139                                            1 	(obj:17)
t_x_1144                                            1 	(obj:64)
t_x_1146                                            1 	(obj:19)
t_x_1147                                            1 	(obj:13)
t_x_1148                                            1 	(obj:38)
t_x_1155                                            1 	(obj:1)
t_x_1157                                            1 	(obj:37)
t_x_1170                                            1 	(obj:6)
t_x_1176                                            1 	(obj:19)
t_x_1178                                            1 	(obj:5)
t_x_1182                                            1 	(obj:29)
t_x_1184                                            1 	(obj:26)
t_x_1190                                            1 	(obj:0)
t_x_1193                                            1 	(obj:8)
t_x_1199                                            1 	(obj:14)
t_x_1200                                            1 	(obj:2)
t_x_1202                                            1 	(obj:30)
t_x_1203                                            1 	(obj:0)
t_x_1206                                            1 	(obj:45)
t_x_1207                                            1 	(obj:22)
t_x_1209                                            1 	(obj:5)
t_x_1212                                            1 	(obj:18)
t_x_1213                                            1 	(obj:13)
t_x_1216                                            1 	(obj:2)
t_x_1219                                            1 	(obj:18)
t_x_1220                                            1 	(obj:7)
t_x_1221                                            1 	(obj:14)
t_x_1224                                            1 	(obj:77)
t_x_1226                                            1 	(obj:13)
t_x_1232                                            1 	(obj:10)
t_x_1237                                            1 	(obj:9)
t_x_1238                                            1 	(obj:27)
t_x_1240                                            1 	(obj:33)
t_x_1243                                            1 	(obj:42)
t_x_1245                                            1 	(obj:19)
t_x_1246                                            1 	(obj:10)
t_x_1252                                            1 	(obj:6)
t_x_1253                                            1 	(obj:12)
t_x_1259                                            1 	(obj:51)
t_x_1260                                            1 	(obj:11)
t_x_1263                                            1 	(obj:13)
t_x_1264                                            1 	(obj:2)
t_x_1265                                            1 	(obj:4)
t_x_1279                                            1 	(obj:14)
t_x_1284                                            1 	(obj:22)
t_x_1287                                            1 	(obj:5)
t_x_1292                                            1 	(obj:11)
t_x_1295                                            1 	(obj:33)
t_x_1300                                            1 	(obj:6)
t_x_1301                                            1 	(obj:7)
t_x_1304                                            1 	(obj:18)
t_x_1305                                            1 	(obj:8)
t_x_1309                                            1 	(obj:36)
t_x_1311                                            1 	(obj:23)
t_x_1313                                            1 	(obj:2)
t_x_1315                                            1 	(obj:13)
t_x_1317                                            1 	(obj:3)
t_x_1318                                            1 	(obj:0)
t_x_1323                                            1 	(obj:11)
t_x_1324                                            1 	(obj:34)
t_x_1327                                            1 	(obj:10)
t_x_1328                                            1 	(obj:60)
t_x_1333                                            1 	(obj:10)
t_x_1335                                            1 	(obj:33)
t_x_1336                                            1 	(obj:19)
t_x_1343                                            1 	(obj:17)
t_x_1348                                            1 	(obj:33)
t_x_1350                                            1 	(obj:8)
t_x_1354                                            1 	(obj:2)
t_x_1357                                            1 	(obj:26)
t_x_1359                                            1 	(obj:9)
t_x_1360                                            1 	(obj:72)
t_x_1361                                            1 	(obj:2)
t_x_1369                                            1 	(obj:19)
t_x_1370                                            1 	(obj:23)
t_x_1371                                            1 	(obj:68)
t_x_1372                                            1 	(obj:14)
t_x_1374                                            1 	(obj:26)
t_x_1376                                            1 	(obj:25)
t_x_1377                                            1 	(obj:7)
t_x_1378                                            1 	(obj:9)
t_x_1386                                            1 	(obj:3)
t_x_1389                                            1 	(obj:59)
t_x_1390                                            1 	(obj:16)
t_x_1392                                            1 	(obj:4)
t_x_1393                                            1 	(obj:18)
t_x_1395                                            1 	(obj:16)
t_x_1396                                            1 	(obj:5)
t_x_1398                                            1 	(obj:21)
t_x_1407                                            1 	(obj:20)
t_x_1408                                            1 	(obj:57)
t_x_1409                                            1 	(obj:9)
t_x_1411                                            1 	(obj:26)
t_x_1413                                            1 	(obj:5)
t_x_1419                                            1 	(obj:12)
t_x_1420                                            1 	(obj:17)
t_x_1421                                            1 	(obj:2)
t_x_1427                                            1 	(obj:2)
t_x_1428                                            1 	(obj:19)
t_x_1435                                            1 	(obj:5)
t_x_1439                                            1 	(obj:20)
t_x_1442                                            1 	(obj:6)
t_x_1444                                            1 	(obj:21)
t_x_1445                                            1 	(obj:7)
t_x_1446                                            1 	(obj:33)
t_x_1447                                            1 	(obj:39)
t_x_1448                                            1 	(obj:19)
t_x_1452                                            1 	(obj:21)
t_x_1455                                            1 	(obj:23)
t_x_1459                                            1 	(obj:0)
t_x_1462                                            1 	(obj:26)
t_x_1464                                            1 	(obj:15)
t_x_1473                                            1 	(obj:11)
t_x_1477                                            1 	(obj:9)
t_x_1480                                            1 	(obj:30)
t_x_1482                                            1 	(obj:26)
t_x_1483                                            1 	(obj:11)
t_x_1484                                            1 	(obj:1)
t_x_1488                                            1 	(obj:16)
t_x_1495                                            1 	(obj:39)
t_x_1496                                            1 	(obj:17)
t_x_1497                                            1 	(obj:9)
t_x_1500                                            1 	(obj:34)
t_x_1506                                            1 	(obj:44)
t_x_1511                                            1 	(obj:43)
t_x_1512                                            1 	(obj:19)
t_x_1513                                            1 	(obj:3)
t_x_1516                                            1 	(obj:6)
t_x_1517                                            1 	(obj:11)
t_x_1521                                            1 	(obj:4)
t_x_1523                                            1 	(obj:23)
t_x_1525                                            1 	(obj:21)
t_x_1530                                            1 	(obj:25)
t_x_1531                                            1 	(obj:0)
t_x_1533                                            1 	(obj:28)
t_x_1535                                            1 	(obj:26)
t_x_1538                                            1 	(obj:5)
t_x_1543                                            1 	(obj:8)
t_x_1545                                            1 	(obj:10)
t_x_1547                                            1 	(obj:8)
t_x_1548                                            1 	(obj:27)
t_x_1566                                            1 	(obj:4)
t_x_1568                                            1 	(obj:12)
t_x_1570                                            1 	(obj:6)
t_x_1574                                            1 	(obj:1)
t_x_1575                                            1 	(obj:32)
t_x_1577                                            1 	(obj:22)
t_x_1578                                            1 	(obj:32)
t_x_1580                                            1 	(obj:40)
t_x_1581                                            1 	(obj:13)
t_x_1582                                            1 	(obj:7)
t_x_1584                                            1 	(obj:20)
t_x_1586                                            1 	(obj:18)
t_x_1588                                            1 	(obj:19)
t_x_1589                                            1 	(obj:57)
t_x_1594                                            1 	(obj:4)
t_x_1596                                            1 	(obj:34)
t_x_1597                                            1 	(obj:8)
t_x_1601                                            1 	(obj:5)
t_x_1603                                            1 	(obj:28)
t_x_1606                                            1 	(obj:67)
t_x_1609                                            1 	(obj:2)
t_x_1611                                            1 	(obj:10)
t_x_1615                                            1 	(obj:9)
t_x_1616                                            1 	(obj:17)
t_x_1618                                            1 	(obj:14)
t_x_1619                                            1 	(obj:17)
t_x_1624                                            1 	(obj:24)
t_x_1634                                            1 	(obj:17)
t_x_1635                                            1 	(obj:1)
t_x_1638                                            1 	(obj:35)
t_x_1641                                            1 	(obj:17)
t_x_1643                                            1 	(obj:18)
t_x_1645                                            1 	(obj:7)
t_x_1648                                            1 	(obj:22)
t_x_1650                                            1 	(obj:35)
t_x_1655                                            1 	(obj:17)
t_x_1658                                            1 	(obj:0)
t_x_1659                                            1 	(obj:3)
t_x_1663                                            1 	(obj:32)
t_x_1667                                            1 	(obj:8)
t_x_1668                                            1 	(obj:0)
t_x_1673                                            1 	(obj:19)
t_x_1674                                            1 	(obj:5)
t_x_1675                                            1 	(obj:0)
t_x_1679                                            1 	(obj:12)
t_x_1680                                            1 	(obj:26)
t_x_1681                                            1 	(obj:12)
t_x_1685                                            1 	(obj:10)
t_x_1694                                            1 	(obj:45)
t_x_1702                                            1 	(obj:24)
t_x_1712                                            1 	(obj:1)
t_x_1721                                            1 	(obj:18)
t_x_1727                                            1 	(obj:0)
t_x_1730                                            1 	(obj:8)
t_x_1731                                            1 	(obj:2)
t_x_1734                                            1 	(obj:17)
t_x_1736                                            1 	(obj:18)
t_x_1737                                            1 	(obj:18)
t_x_1738                                            1 	(obj:17)
t_x_1743                                            1 	(obj:20)
t_x_1747                                            1 	(obj:5)
t_x_1749                                            1 	(obj:4)
t_x_1750                                            1 	(obj:35)
t_x_1755                                            1 	(obj:13)
t_x_1756                                            1 	(obj:21)
t_x_1757                                            1 	(obj:61)
t_x_1758                                            1 	(obj:5)
t_x_1760                                            1 	(obj:0)
t_x_1765                                            1 	(obj:17)
t_x_1770                                            1 	(obj:19)
t_x_1771                                            1 	(obj:28)
t_x_1772                                            1 	(obj:8)
t_x_1775                                            1 	(obj:6)
t_x_1776                                            1 	(obj:9)
t_x_1779                                            1 	(obj:11)
t_x_1788                                            1 	(obj:8)
t_x_1791                                            1 	(obj:11)
t_x_1792                                            1 	(obj:6)
t_x_1794                                            1 	(obj:11)
t_x_1796                                            1 	(obj:22)
t_x_1798                                            1 	(obj:22)
t_x_1799                                            1 	(obj:26)
t_x_1803                                            1 	(obj:26)
t_x_1806                                            1 	(obj:39)
t_x_1811                                            1 	(obj:2)
t_x_1813                                            1 	(obj:84)
t_x_1818                                            1 	(obj:14)
t_x_1822                                            1 	(obj:7)
t_x_1824                                            1 	(obj:53)
t_x_1826                                            1 	(obj:4)
t_x_1829                                            1 	(obj:1)
t_x_1832                                            1 	(obj:29)
t_x_1833                                            1 	(obj:30)
t_x_1835                                            1 	(obj:19)
t_x_1841                                            1 	(obj:35)
t_x_1843                                            1 	(obj:7)
t_x_1849                                            1 	(obj:21)
t_x_1850                                            1 	(obj:63)
t_x_1851                                            1 	(obj:24)
t_x_1852                                            1 	(obj:47)
t_x_1854                                            1 	(obj:13)
t_x_1855                                            1 	(obj:10)
t_x_1859                                            1 	(obj:26)
t_x_1869                                            1 	(obj:0)
t_x_1870                                            1 	(obj:0)
t_x_1871                                            1 	(obj:3)
t_x_1874                                            1 	(obj:6)
t_x_1878                                            1 	(obj:16)
t_x_1882                                            1 	(obj:7)
t_x_1883                                            1 	(obj:11)
t_x_1886                                            1 	(obj:8)
t_x_1889                                            1 	(obj:4)
t_x_1891                                            1 	(obj:0)
t_x_1893                                            1 	(obj:19)
t_x_1894                                            1 	(obj:27)
t_x_1905                                            1 	(obj:3)
t_x_1908                                            1 	(obj:45)
t_x_1909                                            1 	(obj:3)
t_x_1911                                            1 	(obj:23)
t_x_1913                                            1 	(obj:10)
t_x_1916                                            1 	(obj:26)
t_x_1919                                            1 	(obj:12)
t_x_1926                                            1 	(obj:1)
t_x_1933                                            1 	(obj:17)
t_x_1937                                            1 	(obj:18)
t_x_1938                                            1 	(obj:12)
t_x_1940                                            1 	(obj:12)
t_x_1941                                            1 	(obj:12)
t_x_1949                                            1 	(obj:8)
t_x_1953                                            1 	(obj:12)
t_x_1958                                            1 	(obj:6)
t_x_1959                                            1 	(obj:2)
t_x_1961                                            1 	(obj:11)
t_x_1967                                            1 	(obj:48)
t_x_1972                                            1 	(obj:35)
t_x_1974                                            1 	(obj:10)
t_x_1975                                            1 	(obj:39)
t_x_1980                                            1 	(obj:6)
t_x_1984                                            1 	(obj:14)
t_x_1987                                            1 	(obj:1)
t_x_1992                                            1 	(obj:12)
t_x_1993                                            1 	(obj:0)
t_x_1995                                            1 	(obj:18)
t_x_1996                                            1 	(obj:9)
